c cnf generated by mark.reason.ac.CompilerAce written by Mark Chavira
c
c Following are a few statistics:
c
c     Number of potentials               : 8
c     Number of constant potentials      : 0
c     Number of root potentials          : 2
c     Number of zero-one root potentials : 0
c     Number of literals                 : 108
c
p cnf 41 38
eclauses 8
-1 3 0
-2 4 0
7 0
-8 -2 10 0
-8 -1 11 0
-9 -1 12 0
-9 -2 13 0
-17 -14 18 0
-16 -15 19 0
-17 -15 20 0
-16 -14 21 0
-22 -6 24 0
-23 -5 25 0
-22 -5 26 0
-23 -6 27 0
-28 -6 30 0
-28 -5 31 0
-29 -5 32 0
-29 -6 33 0
-35 -22 -14 36 0
-34 -23 -15 36 0
-35 -22 -15 37 0
-35 -23 -14 38 0
-34 -23 -14 39 0
-34 -22 -15 40 0
-34 -22 -14 41 0
-35 -23 -15 41 0
-28 -15 0
-29 -14 -9 0
-15 -8 0
1 2 0
5 6 0
8 9 0
14 15 0
16 17 0
22 23 0
28 29 0
34 35 0
